TITLE : Patch test for T3 element A (from example 4-4)
        (11:54:6 on June 5, 2025, Thursday)

C O N T R O L   I N F O R M A T I O N

      NUMBER OF NODAL POINTS . . . . . . . . . . (NUMNP)  =     5
      NUMBER OF ELEMENT GROUPS . . . . . . . . . (NUMEG)  =     1
      NUMBER OF LOAD CASES . . . . . . . . . . . (NLCASE) =     1
      SOLUTION MODE  . . . . . . . . . . . . . . (MODEX)  =     1
         EQ.0, DATA CHECK
         EQ.1, EXECUTION

 N O D A L   P O I N T   D A T A

    NODE       BOUNDARY                         NODAL POINT
   NUMBER  CONDITION  CODES                     COORDINATES
        1    2    2    1       0.00000e+00    0.00000e+00    0.00000e+00
        2    2    2    1       2.50000e+00    0.00000e+00    0.00000e+00
        3    2    2    1       2.50000e+00    3.00000e+00    0.00000e+00
        4    2    2    1       0.00000e+00    2.00000e+00    0.00000e+00
        5    2    2    1       1.00000e+00    1.20000e+00    0.00000e+00

 EQUATION NUMBERS

   NODE NUMBER   DEGREES OF FREEDOM
        N           X    Y    Z
        1           0    0    0
        2           0    0    0
        3           0    0    0
        4           0    0    0
        5           0    0    0

 N O N E   Z E R O    E S S E N T I A L   B O U N D A R Y   D A T A

     NUMBER OF NON_ZERO ESSENTIAL BOUDNDARY DATAS . =     6

    NODE       DIRECTION   DISPLACEMENT
   NUMBER                   MAGNITUDE
      2            1        2.50000e-02
      3            1        2.50000e-02
      3            2       -9.00000e-03
      4            2       -6.00000e-03
      5            1        1.00000e-02
      5            2       -3.60000e-03

 L O A D   C A S E   D A T A

     LOAD CASE NUMBER . . . . . . . =     1
     NUMBER OF CONCENTRATED LOADS . =     0

    NODE       DIRECTION      LOAD
   NUMBER                   MAGNITUDE

 E L E M E N T   G R O U P   D A T A


 E L E M E N T   D E F I N I T I O N

 ELEMENT TYPE  . . . . . . . . . . . . .( NPAR(1) ) . . =    3
     EQ.1, TRUSS ELEMENTS
     EQ.2, ELEMENTS CURRENTLY
     EQ.3, NOT AVAILABLE

 NUMBER OF ELEMENTS. . . . . . . . . . .( NPAR(2) ) . . =    4

 M A T E R I A L   D E F I N I T I O N

 NUMBER OF DIFFERENT SETS OF MATERIAL
 AND CROSS-SECTIONAL  CONSTANTS  . . . .( NPAR(3) ) . . =    1

  SET       YOUNG'S     POISSON'S     THICKNESS      PLANE
 NUMBER     MODULUS       RATIO
               E            nu            t
    1    1.00000e+03    3.00000e-01    1.00000e+00    PlaneStress


 E L E M E N T   I N F O R M A T I O N
 ELEMENT     NODE     NODE     NODE       MATERIAL
 NUMBER-N      I        J        K       SET NUMBER
    1          4        1        5           1
    2          5        1        2           1
    3          5        2        3           1
    4          4        5        3           1

 LOAD CASE    1


 D I S P L A C E M E N T S

  NODE           X-DISPLACEMENT    Y-DISPLACEMENT    Z-DISPLACEMENT
    1               0.00000e+00       0.00000e+00       0.00000e+00
    2               2.50000e-02       0.00000e+00       0.00000e+00
    3               2.50000e-02      -9.00000e-03       0.00000e+00
    4               0.00000e+00      -6.00000e-03       0.00000e+00
    5               1.00000e-02      -3.60000e-03       0.00000e+00

 N O D A L   F O R C E 
  NODE                        FX                FY                FZ
    1              -1.00000e+01       8.88178e-16       0.00000e+00
    2               1.50000e+01      -4.44089e-16       0.00000e+00
    3               1.00000e+01       1.77636e-15       0.00000e+00
    4              -1.50000e+01       8.88178e-16       0.00000e+00
    5              -1.55431e-15      -3.55271e-15       0.00000e+00

 S T R E S S  C A L C U L A T I O N S  F O R  E L E M E N T  G R O U P    1

  ELEMENT             S11            S22            S12            S33
  NUMBER
      1      10.000000       0.000000       0.000000       0.000000
      2      10.000000       0.000000       0.000000       0.000000
      3      10.000000       0.000000      -0.000000       0.000000
      4      10.000000       0.000000       0.000000       0.000000


 S O L U T I O N   T I M E   L O G   I N   S E C 

     TIME FOR INPUT PHASE = 0.001007
     TIME FOR CALCULATION OF STIFFNESS MATRIX = 0.000028
     TIME FOR FACTORIZATION AND LOAD CASE SOLUTIONS = 0.000615

     T O T A L   S O L U T I O N   T I M E = 0.001650

