TITLE : convergence analysis file of T3 element when h = 1
        (18:21:10 on June 3, 2025, Tuesday)

C O N T R O L   I N F O R M A T I O N

      NUMBER OF NODAL POINTS . . . . . . . . . . (NUMNP)  =    12
      NUMBER OF ELEMENT GROUPS . . . . . . . . . (NUMEG)  =     1
      NUMBER OF LOAD CASES . . . . . . . . . . . (NLCASE) =     1
      SOLUTION MODE  . . . . . . . . . . . . . . (MODEX)  =     1
         EQ.0, DATA CHECK
         EQ.1, EXECUTION

 N O D A L   P O I N T   D A T A

    NODE       BOUNDARY                         NODAL POINT
   NUMBER  CONDITION  CODES                     COORDINATES
        1    0    0    1       1.00000e+01    1.00000e+00    0.00000e+00
        2    0    0    1       8.00000e+00    1.00000e+00    0.00000e+00
        3    0    0    1       6.00000e+00    1.00000e+00    0.00000e+00
        4    0    0    1       4.00000e+00    1.00000e+00    0.00000e+00
        5    0    0    1       2.00000e+00    1.00000e+00    0.00000e+00
        6    1    1    1       0.00000e+00    1.00000e+00    0.00000e+00
        7    0    0    1       1.00000e+01   -1.00000e+00    0.00000e+00
        8    0    0    1       8.00000e+00   -1.00000e+00    0.00000e+00
        9    0    0    1       6.00000e+00   -1.00000e+00    0.00000e+00
       10    0    0    1       4.00000e+00   -1.00000e+00    0.00000e+00
       11    0    0    1       2.00000e+00   -1.00000e+00    0.00000e+00
       12    1    1    1       0.00000e+00   -1.00000e+00    0.00000e+00

 EQUATION NUMBERS

   NODE NUMBER   DEGREES OF FREEDOM
        N           X    Y    Z
        1           1    2    0
        2           3    4    0
        3           5    6    0
        4           7    8    0
        5           9   10    0
        6           0    0    0
        7          11   12    0
        8          13   14    0
        9          15   16    0
       10          17   18    0
       11          19   20    0
       12           0    0    0

 L O A D   C A S E   D A T A

     LOAD CASE NUMBER . . . . . . . =     1
     NUMBER OF CONCENTRATED LOADS . =     2

    NODE       DIRECTION      LOAD
   NUMBER                   MAGNITUDE
      1            1        1.00000e+00
      7            1       -1.00000e+00

 E L E M E N T   G R O U P   D A T A


 E L E M E N T   D E F I N I T I O N

 ELEMENT TYPE  . . . . . . . . . . . . .( NPAR(1) ) . . =    3
     EQ.1, TRUSS ELEMENTS
     EQ.2, ELEMENTS CURRENTLY
     EQ.3, NOT AVAILABLE

 NUMBER OF ELEMENTS. . . . . . . . . . .( NPAR(2) ) . . =   10

 M A T E R I A L   D E F I N I T I O N

 NUMBER OF DIFFERENT SETS OF MATERIAL
 AND CROSS-SECTIONAL  CONSTANTS  . . . .( NPAR(3) ) . . =    1

  SET       YOUNG'S     POISSON'S     THICKNESS      PLANE
 NUMBER     MODULUS       RATIO
               E            nu            t
    1    1.00000e+04    0.00000e+00    1.00000e+00    PlaneStress


 E L E M E N T   I N F O R M A T I O N
 ELEMENT     NODE     NODE     NODE       MATERIAL
 NUMBER-N      I        J        K       SET NUMBER
    1          1        2        8           1
    2          8        7        1           1
    3          2        3        9           1
    4          9        8        2           1
    5          3        4       10           1
    6         10        9        3           1
    7          4        5       11           1
    8         11       10        4           1
    9          5        6       12           1
   10         12       11        5           1

	TOTAL SYSTEM DATA

     NUMBER OF EQUATIONS . . . . . . . . . . . . . .(NEQ) = 20
     NUMBER OF MATRIX ELEMENTS . . . . . . . . . . .(NWK) = 162
     MAXIMUM HALF BANDWIDTH  . . . . . . . . . . . .(MK ) = 14
     MEAN HALF BANDWIDTH . . . . . . . . . . . . . .(MM ) = 8


 LOAD CASE    1


 D I S P L A C E M E N T S

  NODE           X-DISPLACEMENT    Y-DISPLACEMENT    Z-DISPLACEMENT
    1               6.76289e-04      -3.31558e-03       0.00000e+00
    2               5.34024e-04      -2.13206e-03       0.00000e+00
    3               4.00050e-04      -1.19991e-03       0.00000e+00
    4               2.66670e-04      -5.33327e-04       0.00000e+00
    5               1.33334e-04      -1.33333e-04       0.00000e+00
    6               0.00000e+00       0.00000e+00       0.00000e+00
    7              -6.76289e-04      -3.37331e-03       0.00000e+00
    8              -5.34024e-04      -2.13620e-03       0.00000e+00
    9              -4.00050e-04      -1.20021e-03       0.00000e+00
   10              -2.66670e-04      -5.33348e-04       0.00000e+00
   11              -1.33334e-04      -1.33334e-04       0.00000e+00
   12               0.00000e+00       0.00000e+00       0.00000e+00

 S T R E S S  C A L C U L A T I O N S  F O R  E L E M E N T  G R O U P    1

  ELEMENT             S11            S22            S12            S33
  NUMBER
      1       0.711325       0.020726      -0.288675       0.000000
      2      -0.711325       0.288675       0.288675       0.000000
      3       0.669873       0.001488      -0.330127       0.000000
      4      -0.669873       0.020726       0.330127       0.000000
      5       0.666897       0.000107      -0.333103       0.000000
      6      -0.666897       0.001488       0.333103       0.000000
      7       0.666683       0.000008      -0.333317       0.000000
      8      -0.666683       0.000107       0.333317       0.000000
      9       0.666668       0.000000      -0.333332       0.000000
     10      -0.666668       0.000008       0.333332       0.000000


 S O L U T I O N   T I M E   L O G   I N   S E C 

     TIME FOR INPUT PHASE = 0.001118
     TIME FOR CALCULATION OF STIFFNESS MATRIX = 0.000068
     TIME FOR FACTORIZATION AND LOAD CASE SOLUTIONS = 0.000662

     T O T A L   S O L U T I O N   T I M E = 0.001848

