TITLE : convergence analysis file of T3 element when h = 1/2
        (15:49:5 on June 3, 2025, Tuesday)

C O N T R O L   I N F O R M A T I O N

      NUMBER OF NODAL POINTS . . . . . . . . . . (NUMNP)  =     9
      NUMBER OF ELEMENT GROUPS . . . . . . . . . (NUMEG)  =     1
      NUMBER OF LOAD CASES . . . . . . . . . . . (NLCASE) =     1
      SOLUTION MODE  . . . . . . . . . . . . . . (MODEX)  =     1
         EQ.0, DATA CHECK
         EQ.1, EXECUTION

 N O D A L   P O I N T   D A T A

    NODE       BOUNDARY                         NODAL POINT
   NUMBER  CONDITION  CODES                     COORDINATES
        1    1    1    1       0.00000e+00    0.00000e+00    0.00000e+00
        2    0    0    1       1.00000e+00    0.00000e+00    0.00000e+00
        3    0    0    1       2.00000e+00    0.00000e+00    0.00000e+00
        4    1    1    1       0.00000e+00    5.00000e-01    0.00000e+00
        5    0    0    1       1.00000e+00    5.00000e-01    0.00000e+00
        6    0    0    1       2.00000e+00    5.00000e-01    0.00000e+00
        7    1    1    1       0.00000e+00    1.00000e+00    0.00000e+00
        8    0    0    1       1.00000e+00    1.00000e+00    0.00000e+00
        9    0    0    1       2.00000e+00    1.00000e+00    0.00000e+00

 EQUATION NUMBERS

   NODE NUMBER   DEGREES OF FREEDOM
        N           X    Y    Z
        1           0    0    0
        2           1    2    0
        3           3    4    0
        4           0    0    0
        5           5    6    0
        6           7    8    0
        7           0    0    0
        8           9   10    0
        9          11   12    0

 L O A D   C A S E   D A T A

     LOAD CASE NUMBER . . . . . . . =     1
     NUMBER OF CONCENTRATED LOADS . =     2

    NODE       DIRECTION      LOAD
   NUMBER                   MAGNITUDE
      3            1       -1.00000e+00
      9            1        1.00000e+00

 E L E M E N T   G R O U P   D A T A


 E L E M E N T   D E F I N I T I O N

 ELEMENT TYPE  . . . . . . . . . . . . .( NPAR(1) ) . . =    3
     EQ.1, TRUSS ELEMENTS
     EQ.2, ELEMENTS CURRENTLY
     EQ.3, NOT AVAILABLE

 NUMBER OF ELEMENTS. . . . . . . . . . .( NPAR(2) ) . . =    8

 M A T E R I A L   D E F I N I T I O N

 NUMBER OF DIFFERENT SETS OF MATERIAL
 AND CROSS-SECTIONAL  CONSTANTS  . . . .( NPAR(3) ) . . =    1

  SET       YOUNG'S     POISSON'S     THICKNESS      PLANE
 NUMBER     MODULUS       RATIO
               E            nu            t
    1    1.00000e+04    0.00000e+00    1.00000e+00    PlaneStress


 E L E M E N T   I N F O R M A T I O N
 ELEMENT     NODE     NODE     NODE       MATERIAL
 NUMBER-N      I        J        K       SET NUMBER
    1          1        2        5           1
    2          5        4        1           1
    3          2        3        6           1
    4          6        5        2           1
    5          4        5        8           1
    6          8        7        4           1
    7          5        6        9           1
    8          9        8        5           1

	TOTAL SYSTEM DATA

     NUMBER OF EQUATIONS . . . . . . . . . . . . . .(NEQ) = 12
     NUMBER OF MATRIX ELEMENTS . . . . . . . . . . .(NWK) = 62
     MAXIMUM HALF BANDWIDTH  . . . . . . . . . . . .(MK ) = 8
     MEAN HALF BANDWIDTH . . . . . . . . . . . . . .(MM ) = 5


 LOAD CASE    1


 D I S P L A C E M E N T S

  NODE           X-DISPLACEMENT    Y-DISPLACEMENT    Z-DISPLACEMENT
    1               0.00000e+00       0.00000e+00       0.00000e+00
    2              -2.01625e-04      -2.00922e-04       0.00000e+00
    3              -4.08588e-04      -8.30313e-04       0.00000e+00
    4               0.00000e+00       0.00000e+00       0.00000e+00
    5               1.44498e-06      -2.00161e-04       0.00000e+00
    6               2.62583e-06      -8.06183e-04       0.00000e+00
    7               0.00000e+00       0.00000e+00       0.00000e+00
    8               1.98736e-04      -1.99478e-04       0.00000e+00
    9               4.03337e-04      -7.82614e-04       0.00000e+00

 S T R E S S  C A L C U L A T I O N S  F O R  E L E M E N T  G R O U P    1

  ELEMENT             S11            S22            S12            S33
  NUMBER
      1      -2.016255       0.015227       1.026094       0.000000
      2       0.014450       0.000000      -1.000804       0.000000
      3      -2.069627       0.482593       0.965186       0.000000
      4       0.011808       0.015227      -0.999408       0.000000
      5       0.014450       0.013654       0.972101       0.000000
      6       1.987355       0.000000      -0.997391       0.000000
      7       0.011808       0.471387       0.976995       0.000000
      8       2.046010       0.013654      -0.942774       0.000000


 S O L U T I O N   T I M E   L O G   I N   S E C 

     TIME FOR INPUT PHASE = 0.006275
     TIME FOR CALCULATION OF STIFFNESS MATRIX = 0.000428
     TIME FOR FACTORIZATION AND LOAD CASE SOLUTIONS = 0.001629

     T O T A L   S O L U T I O N   T I M E = 0.008332

