TITLE : convergence analysis file of T3 element when h = 1/4
        (15:49:9 on June 3, 2025, Tuesday)

C O N T R O L   I N F O R M A T I O N

      NUMBER OF NODAL POINTS . . . . . . . . . . (NUMNP)  =    25
      NUMBER OF ELEMENT GROUPS . . . . . . . . . (NUMEG)  =     1
      NUMBER OF LOAD CASES . . . . . . . . . . . (NLCASE) =     1
      SOLUTION MODE  . . . . . . . . . . . . . . (MODEX)  =     1
         EQ.0, DATA CHECK
         EQ.1, EXECUTION

 N O D A L   P O I N T   D A T A

    NODE       BOUNDARY                         NODAL POINT
   NUMBER  CONDITION  CODES                     COORDINATES
        1    1    1    1       0.00000e+00    0.00000e+00    0.00000e+00
        2    0    0    1       5.00000e-01    0.00000e+00    0.00000e+00
        3    0    0    1       1.00000e+00    0.00000e+00    0.00000e+00
        4    0    0    1       1.50000e+00    0.00000e+00    0.00000e+00
        5    0    0    1       2.00000e+00    0.00000e+00    0.00000e+00
        6    1    1    1       0.00000e+00    2.50000e-01    0.00000e+00
        7    0    0    1       5.00000e-01    2.50000e-01    0.00000e+00
        8    0    0    1       1.00000e+00    2.50000e-01    0.00000e+00
        9    0    0    1       1.50000e+00    2.50000e-01    0.00000e+00
       10    0    0    1       2.00000e+00    2.50000e-01    0.00000e+00
       11    1    1    1       0.00000e+00    5.00000e-01    0.00000e+00
       12    0    0    1       5.00000e-01    5.00000e-01    0.00000e+00
       13    0    0    1       1.00000e+00    5.00000e-01    0.00000e+00
       14    0    0    1       1.50000e+00    5.00000e-01    0.00000e+00
       15    0    0    1       2.00000e+00    5.00000e-01    0.00000e+00
       16    1    1    1       0.00000e+00    7.50000e-01    0.00000e+00
       17    0    0    1       5.00000e-01    7.50000e-01    0.00000e+00
       18    0    0    1       1.00000e+00    7.50000e-01    0.00000e+00
       19    0    0    1       1.50000e+00    7.50000e-01    0.00000e+00
       20    0    0    1       2.00000e+00    7.50000e-01    0.00000e+00
       21    1    1    1       0.00000e+00    1.00000e+00    0.00000e+00
       22    0    0    1       5.00000e-01    1.00000e+00    0.00000e+00
       23    0    0    1       1.00000e+00    1.00000e+00    0.00000e+00
       24    0    0    1       1.50000e+00    1.00000e+00    0.00000e+00
       25    0    0    1       2.00000e+00    1.00000e+00    0.00000e+00

 EQUATION NUMBERS

   NODE NUMBER   DEGREES OF FREEDOM
        N           X    Y    Z
        1           0    0    0
        2           1    2    0
        3           3    4    0
        4           5    6    0
        5           7    8    0
        6           0    0    0
        7           9   10    0
        8          11   12    0
        9          13   14    0
       10          15   16    0
       11           0    0    0
       12          17   18    0
       13          19   20    0
       14          21   22    0
       15          23   24    0
       16           0    0    0
       17          25   26    0
       18          27   28    0
       19          29   30    0
       20          31   32    0
       21           0    0    0
       22          33   34    0
       23          35   36    0
       24          37   38    0
       25          39   40    0

 L O A D   C A S E   D A T A

     LOAD CASE NUMBER . . . . . . . =     1
     NUMBER OF CONCENTRATED LOADS . =     2

    NODE       DIRECTION      LOAD
   NUMBER                   MAGNITUDE
      5            1       -1.00000e+00
     25            1        1.00000e+00

 E L E M E N T   G R O U P   D A T A


 E L E M E N T   D E F I N I T I O N

 ELEMENT TYPE  . . . . . . . . . . . . .( NPAR(1) ) . . =    3
     EQ.1, TRUSS ELEMENTS
     EQ.2, ELEMENTS CURRENTLY
     EQ.3, NOT AVAILABLE

 NUMBER OF ELEMENTS. . . . . . . . . . .( NPAR(2) ) . . =   32

 M A T E R I A L   D E F I N I T I O N

 NUMBER OF DIFFERENT SETS OF MATERIAL
 AND CROSS-SECTIONAL  CONSTANTS  . . . .( NPAR(3) ) . . =    1

  SET       YOUNG'S     POISSON'S     THICKNESS      PLANE
 NUMBER     MODULUS       RATIO
               E            nu            t
    1    1.00000e+04    0.00000e+00    1.00000e+00    PlaneStress


 E L E M E N T   I N F O R M A T I O N
 ELEMENT     NODE     NODE     NODE       MATERIAL
 NUMBER-N      I        J        K       SET NUMBER
    1          1        2        7           1
    2          7        6        1           1
    3          2        3        8           1
    4          8        7        2           1
    5          3        4        9           1
    6          9        8        3           1
    7          4        5       10           1
    8         10        9        4           1
    9          6        7       12           1
   10         12       11        6           1
   11          7        8       13           1
   12         13       12        7           1
   13          8        9       14           1
   14         14       13        8           1
   15          9       10       15           1
   16         15       14        9           1
   17         11       12       17           1
   18         17       16       11           1
   19         12       13       18           1
   20         18       17       12           1
   21         13       14       19           1
   22         19       18       13           1
   23         14       15       20           1
   24         20       19       14           1
   25         16       17       22           1
   26         22       21       16           1
   27         17       18       23           1
   28         23       22       17           1
   29         18       19       24           1
   30         24       23       18           1
   31         19       20       25           1
   32         25       24       19           1

	TOTAL SYSTEM DATA

     NUMBER OF EQUATIONS . . . . . . . . . . . . . .(NEQ) = 40
     NUMBER OF MATRIX ELEMENTS . . . . . . . . . . .(NWK) = 376
     MAXIMUM HALF BANDWIDTH  . . . . . . . . . . . .(MK ) = 12
     MEAN HALF BANDWIDTH . . . . . . . . . . . . . .(MM ) = 9


 LOAD CASE    1


 D I S P L A C E M E N T S

  NODE           X-DISPLACEMENT    Y-DISPLACEMENT    Z-DISPLACEMENT
    1               0.00000e+00       0.00000e+00       0.00000e+00
    2              -2.00146e-04      -9.97422e-05       0.00000e+00
    3              -4.01050e-04      -3.99339e-04       0.00000e+00
    4              -6.05319e-04      -9.00372e-04       0.00000e+00
    5              -8.29578e-04      -1.64458e-03       0.00000e+00
    6               0.00000e+00       0.00000e+00       0.00000e+00
    7              -9.99324e-05      -9.99312e-05       0.00000e+00
    8              -1.99399e-04      -4.00283e-04       0.00000e+00
    9              -2.95392e-04      -9.03930e-04       0.00000e+00
   10              -3.69601e-04      -1.62262e-03       0.00000e+00
   11               0.00000e+00       0.00000e+00       0.00000e+00
   12               1.25743e-07      -1.00084e-04       0.00000e+00
   13               5.81089e-07      -4.00559e-04       0.00000e+00
   14               1.09503e-06      -9.03707e-04       0.00000e+00
   15               3.40373e-06      -1.60959e-03       0.00000e+00
   16               0.00000e+00       0.00000e+00       0.00000e+00
   17               9.99384e-05      -1.00095e-04       0.00000e+00
   18               1.99587e-04      -4.00094e-04       0.00000e+00
   19               2.96924e-04      -8.99340e-04       0.00000e+00
   20               3.72314e-04      -1.60668e-03       0.00000e+00
   21               0.00000e+00       0.00000e+00       0.00000e+00
   22               1.99882e-04      -1.00092e-04       0.00000e+00
   23               3.99512e-04      -4.00024e-04       0.00000e+00
   24               6.00065e-04      -8.98802e-04       0.00000e+00
   25               8.17344e-04      -1.59539e-03       0.00000e+00

 S T R E S S  C A L C U L A T I O N S  F O R  E L E M E N T  G R O U P    1

  ELEMENT             S11            S22            S12            S33
  NUMBER
      1      -4.002914      -0.007558       1.006844       0.000000
      2      -1.998648       0.000000      -0.999312       0.000000
      3      -4.018095      -0.037784       1.037074       0.000000
      4      -1.989323      -0.007558      -0.999254       0.000000
      5      -4.085381      -0.142301       1.188210       0.000000
      6      -1.919870      -0.037784      -1.003431       0.000000
      7      -4.485168       0.878708       1.757416       0.000000
      8      -1.484183      -0.142301      -0.988317       0.000000
      9      -1.998648      -0.006128       1.001851       0.000000
     10       0.002515       0.000000      -1.000843       0.000000
     11      -1.989323      -0.011040       0.996073       0.000000
     12       0.009107      -0.006128      -1.003585       0.000000
     13      -1.919870       0.008930       0.893273       0.000000
     14       0.010279      -0.011040      -1.031883       0.000000
     15      -1.484183       0.521166       0.273233       0.000000
     16       0.046174       0.008930      -1.129066       0.000000
     17       0.002515      -0.000431       0.995410       0.000000
     18       1.998769       0.000000      -1.000951       0.000000
     19       0.009107       0.018599       0.975366       0.000000
     20       1.992967      -0.000431      -1.003736       0.000000
     21       0.010279       0.174652       0.885111       0.000000
     22       1.946752       0.018599      -1.012349       0.000000
     23       0.046174       0.116336       0.319407       0.000000
     24       1.507800       0.174652      -1.156799       0.000000
     25       1.998769       0.000119       0.997923       0.000000
     26       3.997642       0.000000      -1.000922       0.000000
     27       1.992967       0.002793       0.998509       0.000000
     28       3.992592       0.000119      -1.000448       0.000000
     29       1.946752       0.021549       1.070344       0.000000
     30       4.011060       0.002793      -0.989275       0.000000
     31       1.507800       0.451540       1.827207       0.000000
     32       4.345586       0.021549      -0.903081       0.000000


 S O L U T I O N   T I M E   L O G   I N   S E C 

     TIME FOR INPUT PHASE = 0.011559
     TIME FOR CALCULATION OF STIFFNESS MATRIX = 0.000606
     TIME FOR FACTORIZATION AND LOAD CASE SOLUTIONS = 0.005797

     T O T A L   S O L U T I O N   T I M E = 0.017962

